COLUMNS

passenger_count
pickup_ID
dropoff_ID
request_time_sec
pickup_district
dropoff_district
LDuals
IDuals
vehicle_ID
pick_position
drop_position

REQUESTS_INFO
1      770       605       31143     290       189       210       210       28        1         4         
3      416       738       31126     100       189       165.5     165.5     48        1         2         
1      308       134       31161     127       9         166       166       77        1         3         
1      200       696       31142     87        189       145       145       102       1         2         
4      768       556       31167     290       199       166       166       107       1         2         
3      398       412       31108     168       52        215.5     215.5     178       1         2         
2      394       220       31055     100       87        233.5     233.5     217       1         4         
1      757       766       31147     131       290       162       162       226       1         2         
1      790       721       31161     290       290       133       133       244       1         3         
1      744       726       31116     290       290       181       181       276       1         2         
1      317       175       31162     277       266       192       192       288       1         2         
4      526       570       31065     52        52        247       247       295       1         2         
1      838       936       31118     290       291       197       197       330       1         3         
2      712       578       31123     131       189       197       197       339       1         2         
1      907       897       31099     290       291       285       285       351       1         2         
2      726       782       31156     290       291       128       128       355       1         3         
1      726       556       31165     290       199       140       140       355       2         4         
1      395       135       31141     100       286       182.5     182.5     379       1         2         
3      748       852       31150     290       291       165       165       395       1         3         
1      757       652       31146     131       189       163       163       410       1         2         
3      926       1218      31087     290       84        258       258       447       1         2         
1      308       554       31155     127       189       172       172       479       1         3         
1      370       480       31163     52        52        121       121       494       1         2         
1      801       503       31141     291       52        167       167       495       1         2         
1      827       699       31146     291       290       162       162       500       1         3         
1      790       674       31155     290       189       139       139       512       1         3         
1      523       771       31122     52        290       139       139       546       1         3         
1      396       212       31154     119       266       164.5     164.5     550       1         2         
3      962       1088      31018     291       291       395       395       551       1         2         
1      861       793       31166     290       290       167       167       555       1         3         
1      936       849       31012     291       291       359       359       574       1         2         
3      688       257       31158     131       87        174       174       601       1         2         
2      908       948       31090     290       290       225       225       620       1         2         
3      865       675       31102     290       189       280       280       650       1         3         
1      838       627       31118     290       189       258       258       674       1         3         
2      679       811       31160     290       290       138       138       680       1         3         
4      772       716       31006     290       189       335       335       728       1         2         
1      983       717       31163     291       189       163       163       729       1         3         
1      304       213       31112     299       266       171       171       743       1         3         
1      714       574       31163     131       189       145       145       750       1         3         
3      916       209       31117     291       266       242       242       783       1         3         
3      841       604       30947     290       189       442       442       796       1         2         
1      927       748       31153     290       290       186       186       812       1         3         
1      893       735       31151     291       131       188       188       824       1         2         
1      455       597       31152     52        131       112       112       836       1         3         
1      1001      676       31163     291       189       185       185       849       1         3         
1      812       947       31159     290       290       137       137       884       1         3         
3      883       651       31124     290       189       233       233       889       1         3         
1      888       527       31103     290       52        254       254       893       1         3         
1      938       669       31135     291       280       222       222       939       1         4         
1      816       961       31067     290       291       294       294       960       1         2         
3      908       948       31090     290       290       301       301       976       1         2         
3      841       604       30947     290       189       356       356       988       1         3         
3      1025      676       31081     291       189       308       308       990       1         2         
1      1005      719       31162     50        189       155       155       1005      1         3         
3      1004      485       31159     291       189       237       237       1005      2         4         
2      481       139       31143     189       57        160       160       1030      1         3         
3      1014      906       31126     84        290       208       208       1034      1         2         
4      816       910       31122     290       290       239       239       1043      1         2         
1      557       535       31166     189       189       81        81        1044      1         3         
3      925       749       31165     290       290       171       171       1050      1         2         
3      1065      791       31023     291       290       327       327       1065      1         2         
1      881       940       31080     290       291       206       206       1091      1         2         
2      1004      485       31159     291       189       199       199       1103      1         3         
1      817       925       31166     290       290       168       168       1104      1         3         
2      688       257       31158     131       87        167       167       1118      1         3         
2      1065      770       31144     291       290       183       183       1125      1         4         
1      1022      1025      31068     291       291       307       307       1125      2         3         
1      949       1161      31128     290       84        177       177       1191      1         3         
1      770       651       31150     290       189       189       189       1208      1         2         
3      835       674       31091     290       189       252       252       1217      1         2         
1      1107      718       31141     291       189       169       169       1226      1         3         
1      550       737       31164     189       189       99        99        1259      1         4         
1      1003      597       31141     291       131       232       232       1273      1         3         
2      305       697       31128     299       189       162       162       1336      1         3         
1      894       627       31121     291       189       222       222       1359      1         2         
1      476       624       31153     52        189       145       145       1417      1         2         
2      444       702       31161     168       290       129       129       1446      1         2         
1      1065      718       31152     291       189       175       175       1478      1         2         
1      462       460       31151     189       189       134       134       1515      1         2         
1      838       652       31133     290       189       243       243       1713      1         2         
1      1022      897       31052     291       291       323       323       1735      1         2         
1      336       62        31094     277       98        197       197       1750      1         3         
1      870       698       31106     291       189       209       209       1757      1         3         
1      892       1005      31100     291       50        239       239       1765      1         3         
1      892       765       31097     291       290       192       192       1765      2         4         
1      915       719       31155     291       189       192       192       1807      1         3         
1      374       217       31155     119       87        180.5     180.5     1824      1         2         
1      370       642       31086     52        131       220       220       1857      1         2         
1      829       555       31149     50        199       151       151       1874      1         3         
2      603       459       31148     189       189       125       125       1890      1         4         
1      905       949       31169     290       290       95        95        1898      1         2         
2      606       47        31143     189       98        113       113       1900      1         3         
1      527       268       31155     52        299       147       147       1952      1         2         
1      852       718       31126     291       189       187       187       1954      1         3         
1      908       578       30846     290       189       545       545       1959      1         2         
1      304       535       31138     299       189       122       122       1977      1         3         
1      581       983       31170     189       291       0         0         0         0         0         
1      668       727       31170     280       290       0         0         0         0         0         
3      632       48        31170     189       98        0         0         0         0         0         
2      632       48        31170     189       98        0         0         0         0         0         
3      984       947       31170     291       290       0         0         0         0         0         
2      984       947       31170     291       290       0         0         0         0         0         
1      906       626       31171     290       189       0         0         0         0         0         
1      486       599       31171     199       280       0         0         0         0         0         
1      794       948       31171     290       290       0         0         0         0         0         
1      200       267       31171     87        266       0         0         0         0         0         
1      818       534       31171     290       199       0         0         0         0         0         
3      946       937       31171     290       291       0         0         0         0         0         
1      926       649       31171     290       189       0         0         0         0         0         
2      864       749       31171     290       290       0         0         0         0         0         
2      475       555       31171     52        199       0         0         0         0         0         
1      972       704       31171     290       290       0         0         0         0         0         
1      197       488       31171     178       199       0         0         0         0         0         
1      623       616       31172     280       131       0         0         0         0         0         
1      757       551       31172     131       189       0         0         0         0         0         
1      1128      882       31172     291       290       0         0         0         0         0         
1      455       330       31173     52        127       0         0         0         0         0         
1      885       10        31173     290       98        0         0         0         0         0         
1      391       697       31173     52        189       0         0         0         0         0         
1      115       834       31173     9         290       0         0         0         0         0         
1      1128      662       31174     291       131       0         0         0         0         0         
1      62        20        31174     98        98        0         0         0         0         0         
1      557       459       31174     189       189       0         0         0         0         0         
1      510       506       31174     199       189       0         0         0         0         0         
1      783       817       31175     50        290       0         0         0         0         0         
3      287       391       31175     299       52        0         0         0         0         0         
1      695       669       31175     189       280       0         0         0         0         0         
1      240       508       31175     87        199       0         0         0         0         0         
1      338       483       31175     277       189       0         0         0         0         0         
2      718       824       31175     189       291       0         0         0         0         0         
3      718       824       31175     189       291       0         0         0         0         0         
1      556       670       31175     199       280       0         0         0         0         0         
2      693       756       31176     280       131       0         0         0         0         0         
3      665       393       31176     131       52        0         0         0         0         0         
3      665       393       31176     131       52        0         0         0         0         0         
3      693       756       31176     280       131       0         0         0         0         0         
2      812       439       31177     290       189       0         0         0         0         0         
3      812       439       31177     290       189       0         0         0         0         0         
1      804       1011      31177     291       84        0         0         0         0         0         
1      478       478       31177     52        52        0         0         0         0         0         
1      894       649       31177     291       189       0         0         0         0         0         
1      118       45        31178     286       98        0         0         0         0         0         
1      756       673       31178     131       189       0         0         0         0         0         
1      723       771       31178     290       290       0         0         0         0         0         
1      33        510       31178     98        199       0         0         0         0         0         
1      213       511       31178     266       199       0         0         0         0         0         
2      760       719       31178     291       189       0         0         0         0         0         
1      870       1065      31179     291       291       0         0         0         0         0         
2      1087      981       31179     291       291       0         0         0         0         0         
2      549       697       31179     52        189       0         0         0         0         0         
1      584       672       31179     189       189       0         0         0         0         0         
2      526       409       31180     52        52        0         0         0         0         0         
2      415       478       31180     100       52        0         0         0         0         0         
1      760       596       31180     291       131       0         0         0         0         0         
1      721       1047      31180     290       291       0         0         0         0         0         
1      603       697       31180     189       189       0         0         0         0         0         
1      526       616       31180     52        131       0         0         0         0         0         
1      1005      887       31180     50        290       0         0         0         0         0         
1      308       118       31180     127       286       0         0         0         0         0         
2      621       624       31180     280       189       0         0         0         0         0         
1      959       1208      31180     291       192       0         0         0         0         0         
1      700       605       31181     290       189       0         0         0         0         0         
1      345       577       31181     299       189       0         0         0         0         0         
1      393       532       31181     52        199       0         0         0         0         0         
1      549       733       31181     52        131       0         0         0         0         0         
1      431       479       31181     52        52        0         0         0         0         0         
2      410       367       31182     52        299       0         0         0         0         0         
1      309       693       31182     127       280       0         0         0         0         0         
3      410       367       31182     52        299       0         0         0         0         0         
3      963       818       31182     50        290       0         0         0         0         0         
3      963       818       31182     50        290       0         0         0         0         0         
1      859       680       31183     290       290       0         0         0         0         0         
2      600       651       31183     280       189       0         0         0         0         0         
3      804       116       31184     291       9         0         0         0         0         0         
2      804       116       31184     291       9         0         0         0         0         0         
1      1109      1181      31184     291       84        0         0         0         0         0         
1      236       372       31184     87        119       0         0         0         0         0         
1      463       580       31184     168       189       0         0         0         0         0         
1      354       570       31184     119       52        0         0         0         0         0         
2      207       624       31184     286       189       0         0         0         0         0         
1      665       315       31184     131       277       0         0         0         0         0         
1      623       267       31184     280       266       0         0         0         0         0         
1      421       11        31184     168       999       0         0         0         0         0         
1      531       154       31185     189       286       0         0         0         0         0         
1      723       507       31185     290       189       0         0         0         0         0         
2      1044      1248      31185     291       129       0         0         0         0         0         
1      937       1148      31185     291       291       0         0         0         0         0         
1      584       512       31186     189       199       0         0         0         0         0         
1      1386      473       31186     129       52        0         0         0         0         0         
2      756       416       31186     131       100       0         0         0         0         0         
3      756       416       31186     131       100       0         0         0         0         0         
2      814       555       31186     290       199       0         0         0         0         0         
1      526       544       31186     52        52        0         0         0         0         0         
1      927       535       31187     290       189       0         0         0         0         0         
3      479       291       31187     52        87        0         0         0         0         0         
1      152       555       31187     9         199       0         0         0         0         0         
2      959       1209      31187     291       192       0         0         0         0         0         
1      580       35        31187     189       98        0         0         0         0         0         
1      795       295       31187     290       87        0         0         0         0         0         
1      285       526       31187     299       52        0         0         0         0         0         
1      814       577       31187     290       189       0         0         0         0         0         
2      947       767       31188     290       290       0         0         0         0         0         
1      311       672       31188     87        189       0         0         0         0         0         
1      738       665       31188     189       131       0         0         0         0         0         
3      291       544       31189     87        52        0         0         0         0         0         
2      291       544       31189     87        52        0         0         0         0         0         
3      64        651       31189     98        189       0         0         0         0         0         
2      64        651       31189     98        189       0         0         0         0         0         
1      1065      673       31189     291       189       0         0         0         0         0         
1      1098      1149      31189     84        291       0         0         0         0         0         
1      618       182       31190     131       178       0         0         0         0         0         
3      533       372       31190     199       119       0         0         0         0         0         
2      533       372       31190     199       119       0         0         0         0         0         
1      410       694       31190     52        189       0         0         0         0         0         
1      768       969       31190     290       290       0         0         0         0         0         
1      749       373       31190     290       119       0         0         0         0         0         
1      598       624       31190     189       189       0         0         0         0         0         
1      610       625       31191     999       189       0         0         0         0         0         
1      277       332       31191     87        87        0         0         0         0         0         
2      946       504       31191     290       52        0         0         0         0         0         
3      946       504       31191     290       52        0         0         0         0         0         
3      505       673       31191     52        189       0         0         0         0         0         
3      505       673       31191     52        189       0         0         0         0         0         
2      78        593       31191     9         52        0         0         0         0         0         
1      747       937       31191     290       291       0         0         0         0         0         
1      413       629       31191     52        189       0         0         0         0         0         
1      527       650       31191     52        189       0         0         0         0         0         
1      1107      1047      31191     291       291       0         0         0         0         0         
1      345       597       31191     299       131       0         0         0         0         0         
1      814       696       31192     290       189       0         0         0         0         0         
2      607       554       31192     189       189       0         0         0         0         0         
1      331       461       31192     127       189       0         0         0         0         0         
2      462       579       31192     189       189       0         0         0         0         0         
1      665       673       31192     131       189       0         0         0         0         0         
1      306       118       31192     299       286       0         0         0         0         0         
1      929       1446      31192     290       129       0         0         0         0         0         
3      645       616       31192     280       131       0         0         0         0         0         
1      345       578       31192     299       189       0         0         0         0         0         
1      630       555       31193     189       199       0         0         0         0         0         
1      311       251       31193     87        127       0         0         0         0         0         
2      1168      968       31193     291       290       0         0         0         0         0         
1      928       628       31193     290       189       0         0         0         0         0         
3      881       415       31193     290       100       0         0         0         0         0         
3      881       415       31193     290       100       0         0         0         0         0         
3      959       710       31193     291       131       0         0         0         0         0         
3      959       710       31193     291       131       0         0         0         0         0         
1      317       11        31194     277       999       0         0         0         0         0         
1      1168      719       31194     291       189       0         0         0         0         0         
1      369       152       31194     52        9         0         0         0         0         0         
3      693       639       31195     280       131       0         0         0         0         0         
1      791       651       31195     290       189       0         0         0         0         0         
2      889       504       31195     290       52        0         0         0         0         0         
1      937       627       31195     291       189       0         0         0         0         0         
2      693       639       31195     280       131       0         0         0         0         0         
1      255       10        31195     87        98        0         0         0         0         0         
2      460       553       31196     189       189       0         0         0         0         0         
2      556       34        31196     199       98        0         0         0         0         0         
1      628       488       31196     189       199       0         0         0         0         0         
1      443       463       31196     168       168       0         0         0         0         0         
3      864       33        31196     290       98        0         0         0         0         0         
1      645       557       31196     280       189       0         0         0         0         0         
3      1132      1566      31196     291       296       0         0         0         0         0         
1      675       727       31196     189       290       0         0         0         0         0         
1      390       532       31196     52        199       0         0         0         0         0         
1      557       415       31197     189       100       0         0         0         0         0         
2      1188      1044      31197     192       291       0         0         0         0         0         
2      653       20        31197     189       98        0         0         0         0         0         
1      1128      768       31197     291       290       0         0         0         0         0         
2      526       617       31197     52        131       0         0         0         0         0         
1      915       699       31197     291       290       0         0         0         0         0         
1      556       685       31197     199       999       0         0         0         0         0         
2      311       526       31197     87        52        0         0         0         0         0         
3      389       720       31197     299       290       0         0         0         0         0         
3      389       720       31197     299       290       0         0         0         0         0         
1      814       651       31198     290       189       0         0         0         0         0         
1      859       1026      31198     290       291       0         0         0         0         0         
1      248       350       31198     266       127       0         0         0         0         0         
1      968       578       31198     290       189       0         0         0         0         0         
1      161       310       31199     178       127       0         0         0         0         0         
3      902       990       31199     50        290       0         0         0         0         0         
3      902       990       31199     50        290       0         0         0         0         0         
1      949       512       31199     290       199       0         0         0         0         0         
1      618       732       31199     131       131       0         0         0         0         0         
